p cnf 34 95
a 30 14 0
e 1 2 3 4 5 6 7 8 9 10 11 12 13 15 16 17 18 19 20 21 22 23 24 25 26 27 28 29 31 32 33 34 0
-2 3 -4 0
2 -3 -4 0
-2 -3 4 0
2 3 4 0
6 4 0
6 5 0
-4 -5 -6 0
-7 1 0
-7 -6 0
-1 6 7 0
-9 1 0
-9 8 0
-1 -8 9 0
-11 10 0
-11 -8 0
-10 8 11 0
12 -3 0
12 -11 0
3 11 -12 0
13 3 0
13 -5 0
-3 5 -13 0
-12 13 -14 0
12 -13 -14 0
-12 -13 14 0
12 13 14 0
15 3 0
15 -3 0
-17 8 0
-17 1 0
-8 -1 17 0
18 -17 0
18 4 0
17 -4 -18 0
-1 -18 -19 0
1 18 -19 0
-1 18 19 0
1 -18 19 0
16 19 -20 0
-16 -19 -20 0
16 -19 20 0
-16 19 20 0
-20 8 -21 0
20 -8 -21 0
-20 -8 21 0
20 8 21 0
22 15 0
22 21 0
-15 -21 -22 0
23 -14 0
23 22 0
14 -22 -23 0
9 23 -24 0
-9 -23 -24 0
9 -23 24 0
-9 23 24 0
25 -7 0
25 -24 0
7 24 -25 0
-26 2 0
-26 -1 0
-2 1 26 0
-25 26 -27 0
25 -26 -27 0
-25 -26 27 0
25 26 27 0
28 3 -29 0
-28 -3 -29 0
28 -3 29 0
-28 3 29 0
-30 3 0
-30 -3 0
-31 29 0
-31 30 0
-29 -30 31 0
-32 -16 0
-32 -17 0
16 17 32 0
33 -31 0
33 -32 0
31 32 -33 0
27 -33 -34 0
-27 33 -34 0
27 33 34 0
-27 -33 34 0
3 -25 31 0
-2 17 -8 11 -18 -1 26 -29 0
23 -14 -5 6 -30 26 0
7 -9 -2 24 -3 11 0
18 21 -8 -28 1 -6 0
-2 23 -33 27 0
-27 -12 -21 0
-31 -13 -3 7 24 -14 2 -23 0
-7 9 30 -27 -11 0
34 0
